letting n_nurses=25
letting n_days=7
letting n_shift_types=4
letting max_covers=17
letting t_covers=87
letting covers=[1,13,1,0,3,17,0,0,3,14,0,0,1,6,0,0,2,3,0,0,6,0,1,0,13,0,3,0]
letting prefes=[1,4,4,1,4,4,1,4,1,4,4,4,1,4,4,4,4,4,4,1,1,4,4,4,4,4,1,4,4,4,1,1,4,4,1,4,4,1,4,2,4,4,4,2,4,2,4,4,4,4,4,2,4,4,1,4,4,4,4,1,4,4,1,4,1,4,4,2,4,4,4,2,4,2,1,4,4,4,4,2,4,4,1,4,4,4,4,1,4,1,4,1,4,4,1,4,1,4,4,4,4,4,4,1,1,4,4,4,4,1,4,1,4,4,1,1,4,4,4,4,4,4,4,4,4,1,4,4,1,4,4,4,4,1,4,4,4,4,4,4,4,1,4,1,4,4,4,4,4,4,4,4,4,4,4,4,4,4,4,4,4,4,4,4,4,4,4,4,4,4,4,1,4,4,1,4,4,4,4,4,4,4,1,4,4,4,4,4,4,4,1,4,4,4,1,4,4,4,4,4,4,4,1,4,4,4,4,4,4,4,4,4,4,4,4,4,4,4,4,4,4,4,1,4,4,1,4,1,4,4,1,4,4,4,4,4,4,4,4,4,4,4,4,4,4,4,4,4,4,4,1,4,1,1,1,1,4,4,1,4,1,4,4,4,4,4,4,4,4,4,4,1,4,4,4,4,4,4,1,4,4,4,4,1,4,4,1,4,4,1,4,4,4,4,1,4,4,4,1,4,4,4,1,4,4,4,1,4,4,4,4,4,4,4,1,4,1,4,4,4,4,4,4,4,4,4,4,1,4,4,4,4,4,4,1,4,4,4,4,4,4,4,1,4,4,4,4,4,4,1,4,4,1,4,4,4,4,1,4,4,4,4,1,4,4,4,4,1,4,4,1,4,4,4,4,4,4,4,4,4,4,4,1,4,4,4,4,4,4,4,1,4,4,4,4,1,1,1,1,1,4,1,1,2,4,1,4,2,1,2,4,4,4,1,4,2,1,1,1,1,4,4,4,1,1,1,1,1,4,4,1,4,1,4,1,4,4,4,4,4,1,4,1,4,1,1,1,1,4,1,4,1,4,1,4,1,4,4,1,4,1,4,4,4,4,4,4,4,1,4,4,4,4,1,4,1,4,1,1,1,4,4,1,4,4,1,4,4,4,1,4,4,1,4,1,4,4,1,4,4,4,4,1,4,1,4,1,1,1,4,1,4,4,4,4,2,4,4,1,2,4,2,4,4,4,4,1,2,1,4,1,4,4,4,4,4,4,4,4,4,4,4,4,2,4,4,4,2,4,2,4,4,4,4,4,2,4,4,4,4,4,4,4,1,4,4,1,4,4,4,4,4,4,1,4,4,1,4,4,4,4,1,4,4,4,4,1,4,4,4,4,1,1,1,1,1,4,4,1,4,1,4,4,4,4,4,4,4,1,4,4,4,1,1,1,1,1,4,4,1,4,4,1,4,1,4,4,4,4,4,4,4,4,4,4,4,4,4,4,4,4,4,1,4,4,4,4,4,1,4,1,4,4,1,4,4,4,4,1,4,4,4,1,4,4,4,1,4,1,4,1,4,1,4,4,1,4,4,1,4,4,4,4,4,4,4,4,4,4,4,4,1,4,4,4,4,4,4,1,4]
letting ub =  457
